proyfinal/src/viki/013/experimentInOfficeAgust.take6.output/9cd7d33b-be15-4a95-98ea-65873c10d85c.als.dat
{'cnf.clauses': '118081',
 'cnf.totvars': '69608',
 'conflict literals': '65',
 'conflicts': '21',
 'decisions': '2451',
 'memused.mb': '16.00',
 'outcome': 'UNSAT',
 'propagations': '19807',
 'restarts': '1',
 'solver.msecs': 25,
 'task.msecs': 95}
