proyfinal/src/viki/013/experimentInOfficeAgust.take6.output/9cd7d33b-be15-4a95-98ea-65873c10d85c.als.out
Reading from standard input... Use '--help' for help.
============================[ Problem Statistics ]=============================
|                                                                             |
|  Number of variables:         69608                                         |
|  Number of clauses:          118081                                         |
|  Parse time:                   0.02 s                                       |
|                                                                             |
============================[ Search Statistics ]==============================
| Conflicts |          ORIGINAL         |          LEARNT          | Progress |
|           |    Vars  Clauses Literals |    Limit  Clauses Lit/Cl |          |
===============================================================================
===============================================================================
restarts              : 1
conflicts             : 21             (839 /sec)
decisions             : 2451           (0.00 % random) (97891 /sec)
propagations          : 19807          (791078 /sec)
conflict literals     : 65             (0.00 % deleted)
Memory used           : 16.00 MB
CPU time              : 0.025038 s

UNSATISFIABLE
